(declare-const c1 Bool)
(declare-const c2 Bool)
(declare-const x Float32)
(declare-const y Float32)
(push)
(assert (distinct x ((_ to_fp 8 24) RNE (ite c1 4.0 2.0))))
(check-sat)
(assert (distinct y ((_ to_fp 8 24) RNE (ite c1 6.0 8.0))))
(check-sat)
(assert (= 2.0 (fp.to_real (ite c2 x y))))
(check-sat)
